minizinc/sudoku_problems2/sudoku_p49.dzn
%
% sudoku_p49.dzn
% See http://www.hakank.org/minizinc/sudoku_gcc.mzn
% 
% This problem is problem 49 from
% Gecode's sudoku.cpp
% http://www.gecode.org/gecode-doc-latest/sudoku_8cpp-source.html
% 
x = array2d(1..n, 1..n, [   
% http://janko.at/Raetsel/Sudoku/366.a.htm
% 49
  3,  _,  _,  _,  _,  2, 10,  _,  4, 15,  _,  6,  _,  _, 16,  1,
 10, 13, 15,  4,  _,  _,  3,  _,  _,  5,  _,  _,  _,  _, 14,  _,
  _,  _,  5, 16,  _,  _,  1, 14,  _,  _,  _,  _, 15, 10, 11,  _,
  _,  _, 14,  _, 16, 15,  7,  5,  _,  _, 11,  _,  _,  9,  3,  _,
 11,  _,  _,  _,  1,  7,  _,  _,  _, 10,  6,  2,  9,  _,  _,  _,
  _,  _,  _, 14, 15, 16,  _,  _,  7,  _,  5,  1,  6,  _,  _, 12,
  6,  3,  _,  _, 13,  _,  _,  _, 16,  _,  _,  _, 14,  4,  2, 15,
  2,  _,  _,  _,  _,  8,  6,  3,  9,  _,  _,  _,  1, 16,  _,  _,
  _,  _, 11,  8,  _,  _,  _,  7,  6, 16,  2,  _,  _,  _,  _, 14,
  5, 12,  3,  2,  _,  _,  _,  4,  _,  _,  _, 14,  _,  _,  1, 16,
 16,  _,  _,  6,  2, 14,  _,  9,  _,  _, 13,  4, 11,  _,  _,  _,
  _,  _,  _, 13,  5, 12, 16,  _,  _,  _, 10,  3,  _,  _,  _,  7,
  _, 16,  7,  _,  _,  5,  _,  _,  8,  4, 15,  9,  _, 11,  _,  _,
  _, 15,  6, 11,  _,  _,  _,  _,  5, 14,  _,  _,  2,  1,  _,  _,
  _,  5,  _,  _,  _,  _, 11,  _,  _,  6,  _,  _,  7, 14, 15,  9,
 14,  4,  _,  _, 10,  _,  9, 15,  _, 11, 12,  _,  _,  _,  _,  5
]);

n = 16;


